Version identifier: 22.1.1.0 | 2022-11-28 | 9160aff4d
CPXPARAM_ClockType                               1
CPXPARAM_Read_DataCheck                          1
CPXPARAM_Threads                                 1
CPXPARAM_Simplex_Tolerances_Optimality           1.0000000000000001e-09
CPXPARAM_TimeLimit                               7200
CPXPARAM_MIP_Tolerances_AbsMIPGap                0
CPXPARAM_MIP_Tolerances_MIPGap                   0
CPXPARAM_MIP_Tolerances_Integrality              0
Found incumbent of value 0.000000 after 0.00 sec. (0.69 ticks)
Tried aggregator 1 time.
MIQP Presolve eliminated 12 rows and 4 columns.
MIQP Presolve modified 8 coefficients.
Reduced MIQP has 31980 rows, 1266 columns, and 97321 nonzeros.
Reduced MIQP has 1139 binaries, 127 generals, 0 SOSs, and 0 indicators.
Reduced MIQP objective Q matrix has 127 nonzeros.
Presolve time = 0.08 sec. (46.08 ticks)
Probing time = 0.00 sec. (3.57 ticks)
Tried aggregator 1 time.
Reduced MIQP has 31980 rows, 1266 columns, and 97321 nonzeros.
Reduced MIQP has 1139 binaries, 127 generals, 0 SOSs, and 0 indicators.
Reduced MIQP objective Q matrix has 127 nonzeros.
Presolve time = 0.06 sec. (41.19 ticks)
Classifier predicts products in MIQP should be linearized.
Probing time = 0.00 sec. (3.57 ticks)
Clique table members: 22.
MIP emphasis: balance optimality and feasibility.
MIP search method: dynamic search.
Parallel mode: none, using 1 thread.
Root relaxation solution time = 27.46 sec. (60019.00 ticks)

        Nodes                                         Cuts/
   Node  Left     Objective  IInf  Best Integer    Best Bound    ItCnt     Gap

*     0+    0                            0.0000     3175.0000              --- 
      0     0      793.7500   743        0.0000      793.7500        9     --- 
      0     0      793.7500   751        0.0000 ZeroHalf: 228     8986     --- 
      0     0      793.7500   767        0.0000 ZeroHalf: 290   296762     --- 
Heuristic still looking.
Heuristic still looking.
Heuristic still looking.
*     0+    0                           14.0000      793.7500              --- 
*     0+    0                           16.0000      793.7500              --- 
*     0+    0                          140.0000      793.7500           466.96%
*     0+    0                          242.0000      793.7500           228.00%
*     0+    0                          246.0000      793.7500           222.66%
      0     0        cutoff            246.0000      793.7500   296762  222.66%
      0     2      793.7500   767      246.0000      793.5000   296762  222.56%
Elapsed time = 1194.16 sec. (388461.35 ticks, tree = 0.01 MB, solutions = 6)
      1     3      793.5000   786      246.0000      793.5000   299523  222.56%
      2     4      793.5000   785      246.0000      793.5000   302980  222.56%
      4     6      793.2500   787      246.0000      793.5000   304078  222.56%
      6     8      793.0000   782      246.0000      793.5000   305682  222.56%
      7     9      792.7500   778      246.0000      793.5000   306485  222.56%
      8    10      792.7500   775      246.0000      793.5000   308717  222.56%
     10    12      792.5000   775      246.0000      793.5000   310880  222.56%
     12    14      792.2500   773      246.0000      793.5000   311263  222.56%
     14    16      792.0000   771      246.0000      793.5000   313168  222.56%
     16    18      791.7500   777      246.0000      793.5000   315963  222.56%
Elapsed time = 1224.24 sec. (401405.77 ticks, tree = 0.08 MB, solutions = 6)
     20    22      791.0000   763      246.0000      793.5000   316699  222.56%
     26    28      790.0000   762      246.0000      793.5000   319257  222.56%
     28    30      789.7500   760      246.0000      793.5000   321664  222.56%
     30    32      789.5000   759      246.0000      793.5000   322563  222.56%
     33    35      789.0000   759      246.0000      793.5000   324504  222.56%
     35    37      788.7500   768      246.0000      793.5000   326802  222.56%
     36    38      788.7500   768      246.0000      793.5000   329034  222.56%
     38    40      788.2500   764      246.0000      793.5000   331850  222.56%
     39    41      788.2500   769      246.0000      793.5000   333424  222.56%
     44    46      787.0000   748      246.0000      793.5000   334769  222.56%
Elapsed time = 1415.91 sec. (474012.19 ticks, tree = 0.20 MB, solutions = 6)
     52    54      785.5000   742      246.0000      793.5000   335956  222.56%
     54    56      785.2500   752      246.0000      793.5000   337859  222.56%
     58    60      784.5000   749      246.0000      793.5000   339262  222.56%
     60    62      784.2500   744      246.0000      793.5000   342138  222.56%
     68    70      782.5000   726      246.0000      793.5000   343399  222.56%
     74    76      781.2500   726      246.0000      793.5000   345739  222.56%
     79    81      780.2500   713      246.0000      793.5000   347338  222.56%
     85    87      779.2500   718      246.0000      793.5000   349883  222.56%
     88    90      778.7500   703      246.0000      793.5000   351331  222.56%
     91    93      778.2500   707      246.0000      793.5000   352868  222.56%
Elapsed time = 1447.11 sec. (487315.92 ticks, tree = 0.40 MB, solutions = 6)
     96    98      777.5000   702      246.0000      793.5000   354571  222.56%
    100   102      777.0000   694      246.0000      793.5000   355897  222.56%
    105   107      776.2500   699      246.0000      793.5000   358328  222.56%
    110   112      775.5000   696      246.0000      793.5000   359541  222.56%
    114   116      775.0000   692      246.0000      793.5000   360924  222.56%
    127   129      772.7500   682      246.0000      793.5000   362071  222.56%
    133   135      771.7500   679      246.0000      793.5000   363347  222.56%
    138   140      771.2500   672      246.0000      793.5000   364708  222.56%
    144   146      770.5000   671      246.0000      793.5000   365932  222.56%
    149   151      769.7500   662      246.0000      793.5000   367269  222.56%
Elapsed time = 1472.66 sec. (498342.71 ticks, tree = 0.66 MB, solutions = 6)
    154   156      769.0000   667      246.0000      793.5000   370148  222.56%
    157   159      768.7500   668      246.0000      793.5000   371859  222.56%
    160   162      768.0000   656      246.0000      793.5000   373308  222.56%
    167   169      767.2500   650      246.0000      793.5000   374505  222.56%
    173   175      766.5000   650      246.0000      793.5000   375743  222.56%
    178   180      765.7500   642      246.0000      793.5000   377040  222.56%
    181   183      765.5000   657      246.0000      793.5000   380010  222.56%
    186   188      764.7500   640      246.0000      793.5000   381422  222.56%
    189   191      764.5000   651      246.0000      793.5000   383687  222.56%
    191   193      764.0000   645      246.0000      793.5000   386329  222.56%
Elapsed time = 1504.13 sec. (511806.21 ticks, tree = 0.84 MB, solutions = 6)
    193   195      763.7500   648      246.0000      793.5000   388216  222.56%
    194   196      763.5000   650      246.0000      793.5000   389752  222.56%
    195   197      763.5000   655      246.0000      793.5000   391515  222.56%
    197   199      763.2500   644      246.0000      793.5000   394996  222.56%
    199   201      762.7500   643      246.0000      793.5000   398163  222.56%
    200   202      762.7500   644      246.0000      793.5000   400497  222.56%
    201   203      762.5000   641      246.0000      793.5000   402240  222.56%
    205   207      762.0000   646      246.0000      793.5000   404955  222.56%
    206   208      762.0000   647      246.0000      793.5000   408310  222.56%
    208   210      762.0000   620      246.0000      793.5000   412891  222.56%
Elapsed time = 1538.05 sec. (526179.31 ticks, tree = 0.91 MB, solutions = 6)
    209   211      762.0000   633      246.0000      793.5000   417623  222.56%
    211   213      762.0000   620      246.0000      793.5000   421887  222.56%
    213   215      762.0000   613      246.0000      793.5000   424777  222.56%
    215   217      762.0000   575      246.0000      793.5000   429203  222.56%
    217   219      762.0000   559      246.0000      793.5000   436721  222.56%
    218   220      762.0000   593      246.0000      793.5000   440329  222.56%
    222   224      762.0000   575      246.0000      793.5000   450066  222.56%
    225   227      761.9724   745      246.0000      793.5000   486577  222.56%
    226   228      761.5762   759      246.0000      793.5000   506062  222.56%
    227   229      760.2494   702      246.0000      793.5000   536037  222.56%
Elapsed time = 1721.45 sec. (603882.06 ticks, tree = 0.99 MB, solutions = 6)
    228   230      761.2233   755      246.0000      793.5000   549308  222.56%
    229   229        cutoff            246.0000      793.5000   612430  222.56%
    230   230      761.6096   776      246.0000      793.5000   696510  222.56%
    231   231      733.7389   681      246.0000      793.5000   718368  222.56%
    232   230        cutoff            246.0000      793.5000   771788  222.56%
    234   230      793.2500   779      246.0000      793.5000   772940  222.56%
    237   233      793.2500   771      246.0000      793.5000   774939  222.56%
    238   234      793.2500   784      246.0000      793.5000   778059  222.56%
    240   236      793.2500   777      246.0000      793.5000   781306  222.56%
    241   237      793.2500   742      246.0000      793.5000   791409  222.56%
Elapsed time = 2329.00 sec. (846202.75 ticks, tree = 1.03 MB, solutions = 6)
    242   238      793.2500   798      246.0000      793.5000   796441  222.56%
    243   239      793.2500   792      246.0000      793.5000   814994  222.56%
    244   240      793.2500   760      246.0000      793.5000   817908  222.56%
    245   241      793.2500   785      246.0000      793.5000   822131  222.56%
    246   242      792.7500   777      246.0000      793.5000   995265  222.56%
    247   241    infeasible            246.0000      793.5000  1008025  222.56%
    248   242      792.7493   941      246.0000      793.5000  1081154  222.56%
    249   243      790.0000   781      246.0000      793.5000  1129586  222.56%
    250   244      792.0820   837      246.0000      793.5000  1152034  222.56%
    251   245      792.0798   915      246.0000      793.5000  1158445  222.56%
Elapsed time = 3333.93 sec. (1207375.72 ticks, tree = 1.07 MB, solutions = 6)
    252   246      792.0801   936      246.0000      793.5000  1170943  222.56%
    253   247      791.8750   906      246.0000      793.5000  1180951  222.56%
    254   248      791.1148   829      246.0000      793.5000  1196092  222.56%
    255   249      790.5000   873      246.0000      793.5000  1212021  222.56%
    256   248    infeasible            246.0000      793.5000  1223112  222.56%
    257   247    infeasible            246.0000      793.5000  1235151  222.56%
    260   250      793.2500   767      246.0000      793.2500  1237086  222.46%
    263   253      793.2500   776      246.0000      793.2500  1239312  222.46%
    267   257      793.2500   773      246.0000      793.2500  1241484  222.46%
    271   261      793.2500   789      246.0000      793.2500  1254414  222.46%
Elapsed time = 3600.70 sec. (1315410.07 ticks, tree = 1.14 MB, solutions = 6)
    273   263      793.2500   797      246.0000      793.2500  1262620  222.46%
    275   265      793.2500   667      246.0000      793.2500  1274694  222.46%
    276   266      793.2500   604      246.0000      793.2500  1285452  222.46%
    278   268      793.2500   787      246.0000      793.2500  1303840  222.46%
    279   269      793.2500   735      246.0000      793.2500  1317009  222.46%
    280   270      793.2500   859      246.0000      793.2500  1435976  222.46%
    281   269    infeasible            246.0000      793.2500  1477696  222.46%
    282   270      793.2490   896      246.0000      793.2500  1497408  222.46%
    283   269    infeasible            246.0000      793.2500  1516894  222.46%
    284   270      792.9277   833      246.0000      793.2500  1650693  222.46%
Elapsed time = 6732.78 sec. (2200268.36 ticks, tree = 1.18 MB, solutions = 6)
    285   271      792.8950   877      246.0000      793.2500  1661341  222.46%
    286   272      792.5212   815      246.0000      793.2500  1749790  222.46%

Zero-half cuts applied:  17

Root node processing (before b&c):
  Real time             = 1194.15 sec. (388456.99 ticks)
Sequential b&c:
  Real time             = 6005.89 sec. (1970256.75 ticks)
                          ------------
Total (root+branch&cut) = 7200.04 sec. (2358713.74 ticks)
Solution is feasible.

---------------------
@@@ MIP_time_limit_feasible
>>> Benchmark mc2024_track1_175.cnf k 5 OPT 246 TimeCost 7226.111678123474 TimeSolve 7224.362006902695 TimeRead 0.012552261352539062 TimeTrans 1.7371189594268799
